\ This file has been generated by DOcplex
\ ENCODING=ISO-8859-1
\Problem name: random_problem.lp

Minimize
 obj: 4560 x0 + 2280 x1 + 1140 x2 + 120 x3 + 60 x4 + 30 x5 + 1856 x6 + 928 x7
      + 464 x8 + [ 7040 x0^2 + 7040 x0*x1 + 3520 x0*x2 - 768 x0*x3 - 384 x0*x4
      - 192 x0*x5 + 4672 x0*x6 + 2336 x0*x7 + 1168 x0*x8 + 1760 x1^2
      + 1760 x1*x2 - 384 x1*x3 - 192 x1*x4 - 96 x1*x5 + 2336 x1*x6 + 1168 x1*x7
      + 584 x1*x8 + 440 x2^2 - 192 x2*x3 - 96 x2*x4 - 48 x2*x5 + 1168 x2*x6
      + 584 x2*x7 + 292 x2*x8 + 928 x3^2 + 928 x3*x4 + 464 x3*x5 + 256 x3*x6
      + 128 x3*x7 + 64 x3*x8 + 232 x4^2 + 232 x4*x5 + 128 x4*x6 + 64 x4*x7
      + 32 x4*x8 + 58 x5^2 + 64 x5*x6 + 32 x5*x7 + 16 x5*x8 + 4000 x6^2
      + 4000 x6*x7 + 2000 x6*x8 + 1000 x7^2 + 1000 x7*x8 + 250 x8^2 ]/2
Subject To
 c0: 4 x0 + 2 x1 + x2 + 4 x3 + 2 x4 + x5 + 4 x6 + 2 x7 + x8 = 7

Bounds
 0 <= x0 <= 1
 0 <= x1 <= 1
 0 <= x2 <= 1
 0 <= x3 <= 1
 0 <= x4 <= 1
 0 <= x5 <= 1
 0 <= x6 <= 1
 0 <= x7 <= 1
 0 <= x8 <= 1

Binaries
 x0 x1 x2 x3 x4 x5 x6 x7 x8
End
